% demand
num_movements = 29;
loading_factor = [1200, 1450, 1600, 2000, 1950, 1100, 1250, 1250, 1200, 1350, 1250, 900, 1550, 1500, 1350, 1750, 1350, 1150, 1050, 1400, 1300, 1700, 950, 1750, 1300, 1250, 1950, 1600, 1850];
pickup_time = [0, 1, 1, 2, 2, 3, 3, 3, 3, 3, 4, 4, 5, 5, 7, 7, 7, 8, 10, 10, 10, 10, 11, 12, 12, 12, 13, 13, 13];
delivery_time = [2, 2, 2, 3, 3, 4, 4, 4, 7, 6, 5, 8, 9, 6, 10, 8, 11, 10, 14, 13, 12, 11, 12, 13, 13, 13, 14, 14, 14];

% transporter definition
total_capacity = 7000;
num_decks = 3;
capacity = [3000, 1000, 3000];

% ways out of decks
num_ways_out = 1;
paths_out = array3d(decks, ways_out, decks, [
% ways out of deck d1
2, 3, 0, 

% ways out of deck d2
3, 0, 0, 

% ways out of deck d3
0, 0, 0,	

]);

